\ENCODING=ISO-8859-1
\Problem name: ilog.cplex

Maximize
 obj: 1062 x(0)#0 + 838 x(1)#1 + 865 x(2)#2 + 709 x(3)#3 + 550 x(4)#4
      + 861 x(5)#5 + 583 x(6)#6 + 631 x(7)#7 + 399 x(8)#8 + 533 x(9)#9
      + 513 x(10)#10 + 702 x(11)#11 + 870 x(12)#12 + 716 x(13)#13
      + 901 x(14)#14 + 784 x(15)#15 + 548 x(16)#16 + 654 x(17)#17
      + 678 x(18)#18 + 528 x(19)#19 + 392 x(20)#20 + 713 x(21)#21
      + 542 x(22)#22 + 501 x(23)#23 + 351 x(24)#24 + 638 x(25)#25
      + 473 x(26)#26 + 815 x(27)#27 + 897 x(28)#28 + 786 x(29)#29
      + 955 x(30)#30 + 980 x(31)#31 + 333 x(32)#32 + 971 x(33)#33
      + 810 x(34)#34 + 1091 x(35)#35 + 913 x(36)#36 + 691 x(37)#37
      + 909 x(38)#38 + 526 x(39)#39 + 1131 x(40)#40 + 955 x(41)#41
      + 910 x(42)#42 + 950 x(43)#43 + 1061 x(44)#44 + 751 x(45)#45
      + 847 x(46)#46 + 624 x(47)#47 + 807 x(48)#48 + 574 x(49)#49
      + 683 x(50)#50 + 778 x(51)#51 + 1038 x(52)#52 + 616 x(53)#53
      + 973 x(54)#54 + 1006 x(55)#55 + 610 x(56)#56 + 983 x(57)#57
      + 554 x(58)#58 + 1002 x(59)#59 + 719 x(60)#60 + 500 x(61)#61
      + 713 x(62)#62 + 714 x(63)#63 + 898 x(64)#64 + 584 x(65)#65
      + 582 x(66)#66 + 810 x(67)#67 + 691 x(68)#68 + 1074 x(69)#69
      + 744 x(70)#70 + 553 x(71)#71 + 1108 x(72)#72 + 673 x(73)#73
      + 589 x(74)#74 + 795 x(75)#75 + 758 x(76)#76 + 372 x(77)#77
      + 759 x(78)#78 + 475 x(79)#79 + 847 x(80)#80 + 879 x(81)#81
      + 742 x(82)#82 + 764 x(83)#83 + 575 x(84)#84 + 837 x(85)#85
      + 614 x(86)#86 + 491 x(87)#87 + 1068 x(88)#88 + 685 x(89)#89
      + 498 x(90)#90 + 654 x(91)#91 + 507 x(92)#92 + 871 x(93)#93
      + 815 x(94)#94 + 700 x(95)#95 + 612 x(96)#96 + 835 x(97)#97
      + 1032 x(98)#98 + 660 x(99)#99
Subject To
 c1:  749 x(0)#0 + 429 x(1)#1 + 939 x(2)#2 + 514 x(3)#3 + 890 x(4)#4
      + 858 x(5)#5 + 235 x(6)#6 + 53 x(7)#7 + 860 x(8)#8 + 886 x(9)#9
      + 611 x(10)#10 + 866 x(11)#11 + 237 x(12)#12 + 519 x(13)#13
      + 187 x(14)#14 + 617 x(15)#15 + 507 x(16)#16 + 708 x(17)#17
      + 616 x(18)#18 + 607 x(19)#19 + 246 x(20)#20 + 195 x(21)#21 + 42 x(22)#22
      + 929 x(23)#23 + 576 x(24)#24 + 227 x(25)#25 + 728 x(26)#26
      + 312 x(27)#27 + 785 x(28)#28 + 176 x(29)#29 + 812 x(30)#30
      + 435 x(31)#31 + 127 x(32)#32 + 986 x(33)#33 + 574 x(34)#34
      + 111 x(35)#35 + 792 x(36)#36 + 469 x(37)#37 + 657 x(38)#38
      + 270 x(39)#39 + 183 x(40)#40 + 919 x(41)#41 + 872 x(42)#42
      + 778 x(43)#43 + 520 x(44)#44 + 995 x(45)#45 + 950 x(46)#46
      + 761 x(47)#47 + 44 x(48)#48 + 336 x(49)#49 + 944 x(50)#50 + 262 x(51)#51
      + 379 x(52)#52 + 1000 x(53)#53 + 251 x(54)#54 + 979 x(55)#55
      + 421 x(56)#56 + 985 x(57)#57 + 908 x(58)#58 + 505 x(59)#59
      + 366 x(60)#60 + 62 x(61)#61 + 484 x(62)#62 + 906 x(63)#63 + 717 x(64)#64
      + 475 x(65)#65 + 624 x(66)#66 + 85 x(67)#67 + 803 x(68)#68 + 771 x(69)#69
      + 258 x(70)#70 + 407 x(71)#71 + 276 x(72)#72 + 513 x(73)#73
      + 225 x(74)#74 + 618 x(75)#75 + 183 x(76)#76 + 80 x(77)#77 + 9 x(78)#78
      + 663 x(79)#79 + 773 x(80)#80 + 603 x(81)#81 + 106 x(82)#82
      + 594 x(83)#83 + 483 x(84)#84 + 332 x(85)#85 + 969 x(86)#86
      + 953 x(87)#87 + 967 x(88)#88 + 325 x(89)#89 + 337 x(90)#90
      + 268 x(91)#91 + 748 x(92)#92 + 808 x(93)#93 + 815 x(94)#94
      + 204 x(95)#95 + 670 x(96)#96 + 143 x(97)#97 + 688 x(98)#98
      + 932 x(99)#99 <= 40929
 c2:  821 x(0)#0 + 170 x(1)#1 + 516 x(2)#2 + 272 x(3)#3 + 537 x(4)#4
      + 421 x(5)#5 + 319 x(6)#6 + 840 x(7)#7 + 122 x(8)#8 + 125 x(9)#9
      + 251 x(10)#10 + 299 x(11)#11 + 380 x(12)#12 + 342 x(13)#13
      + 607 x(14)#14 + 970 x(15)#15 + 260 x(16)#16 + 222 x(17)#17
      + 229 x(18)#18 + 107 x(19)#19 + 534 x(20)#20 + 502 x(21)#21
      + 718 x(22)#22 + 83 x(23)#23 + 90 x(24)#24 + 6 x(25)#25 + 94 x(26)#26
      + 136 x(27)#27 + 978 x(28)#28 + 174 x(29)#29 + 712 x(30)#30
      + 588 x(31)#31 + 196 x(32)#32 + 629 x(33)#33 + 15 x(34)#34 + 802 x(35)#35
      + 672 x(36)#36 + 330 x(37)#37 + 913 x(38)#38 + 717 x(39)#39
      + 993 x(40)#40 + 195 x(41)#41 + 293 x(42)#42 + 540 x(43)#43
      + 627 x(44)#44 + 784 x(45)#45 + 598 x(46)#46 + 200 x(47)#47
      + 408 x(48)#48 + 22 x(49)#49 + 326 x(50)#50 + 826 x(51)#51 + 746 x(52)#52
      + 405 x(53)#53 + 868 x(54)#54 + 172 x(55)#55 + 704 x(56)#56
      + 801 x(57)#57 + 337 x(58)#58 + 870 x(59)#59 + 170 x(60)#60
      + 385 x(61)#61 + 517 x(62)#62 + 501 x(63)#63 + 202 x(64)#64
      + 121 x(65)#65 + 301 x(66)#66 + 522 x(67)#67 + 224 x(68)#68
      + 328 x(69)#69 + 417 x(70)#70 + 193 x(71)#71 + 300 x(72)#72
      + 745 x(73)#73 + 318 x(74)#74 + 620 x(75)#75 + 345 x(76)#76
      + 633 x(77)#77 + 576 x(78)#78 + 66 x(79)#79 + 310 x(80)#80 + 637 x(81)#81
      + 590 x(82)#82 + 779 x(83)#83 + 532 x(84)#84 + 321 x(85)#85 + 19 x(86)#86
      + 505 x(87)#87 + 127 x(88)#88 + 121 x(89)#89 + 287 x(90)#90
      + 166 x(91)#91 + 612 x(92)#92 + 296 x(93)#93 + 346 x(94)#94
      + 559 x(95)#95 + 567 x(96)#96 + 945 x(97)#97 + 412 x(98)#98 + 91 x(99)#99
      <= 32340
 c3:  809 x(0)#0 + 440 x(1)#1 + 349 x(2)#2 + 955 x(3)#3 + 539 x(4)#4
      + 175 x(5)#5 + 935 x(6)#6 + 826 x(7)#7 + 438 x(8)#8 + 690 x(9)#9
      + 989 x(10)#10 + 865 x(11)#11 + 38 x(12)#12 + 219 x(13)#13 + 539 x(14)#14
      + 537 x(15)#15 + 427 x(16)#16 + 707 x(17)#17 + 514 x(18)#18
      + 720 x(19)#19 + 813 x(20)#20 + 676 x(21)#21 + 721 x(22)#22
      + 375 x(23)#23 + 514 x(24)#24 + 289 x(25)#25 + 13 x(26)#26 + 929 x(27)#27
      + 705 x(28)#28 + 642 x(29)#29 + 653 x(30)#30 + 220 x(31)#31
      + 579 x(32)#32 + 321 x(33)#33 + 877 x(34)#34 + 901 x(35)#35
      + 431 x(36)#36 + 510 x(37)#37 + 88 x(38)#38 + 341 x(39)#39 + 882 x(40)#40
      + 459 x(41)#41 + 93 x(42)#42 + 566 x(43)#43 + 353 x(44)#44 + 238 x(45)#45
      + 261 x(46)#46 + 27 x(47)#47 + 734 x(48)#48 + 722 x(49)#49 + 578 x(50)#50
      + 738 x(51)#51 + 676 x(52)#52 + 196 x(53)#53 + 215 x(54)#54
      + 747 x(55)#55 + 619 x(56)#56 + 222 x(57)#57 + 287 x(58)#58
      + 453 x(59)#59 + 257 x(60)#60 + 78 x(61)#61 + 359 x(62)#62 + 749 x(63)#63
      + 527 x(64)#64 + 564 x(65)#65 + 51 x(66)#66 + 438 x(67)#67 + 847 x(68)#68
      + 486 x(69)#69 + 913 x(70)#70 + 175 x(71)#71 + 958 x(72)#72
      + 843 x(73)#73 + 95 x(74)#74 + 415 x(75)#75 + 237 x(76)#76 + 185 x(77)#77
      + 573 x(78)#78 + x(79)#79 + 135 x(80)#80 + 623 x(81)#81 + 83 x(82)#82
      + 687 x(83)#83 + 315 x(84)#84 + 497 x(85)#85 + 537 x(86)#86
      + 816 x(87)#87 + 511 x(88)#88 + 583 x(89)#89 + 512 x(90)#90
      + 482 x(91)#91 + 248 x(92)#92 + 901 x(93)#93 + 595 x(94)#94
      + 110 x(95)#95 + 483 x(96)#96 + 928 x(97)#97 + 565 x(98)#98
      + 182 x(99)#99 <= 37439
 c4:  347 x(0)#0 + 926 x(1)#1 + 577 x(2)#2 + 462 x(3)#3 + 553 x(4)#4
      + 682 x(5)#5 + 780 x(6)#6 + 869 x(7)#7 + 596 x(8)#8 + 97 x(9)#9
      + 323 x(10)#10 + 571 x(11)#11 + 614 x(12)#12 + 904 x(13)#13
      + 780 x(14)#14 + 903 x(15)#15 + 554 x(16)#16 + 410 x(17)#17
      + 486 x(18)#18 + 784 x(19)#19 + 78 x(20)#20 + 259 x(21)#21 + 447 x(22)#22
      + 576 x(23)#23 + 229 x(24)#24 + 542 x(25)#25 + 457 x(26)#26
      + 862 x(27)#27 + 817 x(28)#28 + 574 x(29)#29 + 460 x(30)#30
      + 956 x(31)#31 + 483 x(32)#32 + 438 x(33)#33 + 49 x(34)#34 + 396 x(35)#35
      + 323 x(36)#36 + 449 x(37)#37 + 348 x(38)#38 + 592 x(39)#39
      + 789 x(40)#40 + 801 x(41)#41 + 319 x(42)#42 + 208 x(43)#43
      + 921 x(44)#44 + 160 x(45)#45 + 534 x(46)#46 + 467 x(47)#47
      + 137 x(48)#48 + 784 x(49)#49 + 127 x(50)#50 + 137 x(51)#51 + 49 x(52)#52
      + 75 x(53)#53 + 965 x(54)#54 + 38 x(55)#55 + 136 x(56)#56 + 217 x(57)#57
      + 305 x(58)#58 + 623 x(59)#59 + 504 x(60)#60 + 61 x(61)#61 + 191 x(62)#62
      + 330 x(63)#63 + 727 x(64)#64 + 647 x(65)#65 + 489 x(66)#66
      + 831 x(67)#67 + 300 x(68)#68 + 551 x(69)#69 + 110 x(70)#70
      + 760 x(71)#71 + 864 x(72)#72 + 438 x(73)#73 + 936 x(74)#74
      + 978 x(75)#75 + 954 x(76)#76 + 453 x(77)#77 + 625 x(78)#78
      + 969 x(79)#79 + 265 x(80)#80 + 786 x(81)#81 + 19 x(82)#82 + 28 x(83)#83
      + 454 x(84)#84 + 21 x(85)#85 + 818 x(86)#86 + 614 x(87)#87 + 361 x(88)#88
      + 695 x(89)#89 + 458 x(90)#90 + 904 x(91)#91 + 57 x(92)#92 + 422 x(93)#93
      + 327 x(94)#94 + 614 x(95)#95 + 240 x(96)#96 + 728 x(97)#97
      + 856 x(98)#98 + 912 x(99)#99 <= 37982
 c5:  284 x(0)#0 + 797 x(1)#1 + 795 x(2)#2 + 989 x(3)#3 + 558 x(4)#4
      + 634 x(5)#5 + 511 x(6)#6 + 535 x(7)#7 + 144 x(8)#8 + 711 x(9)#9
      + 676 x(10)#10 + 906 x(11)#11 + 56 x(12)#12 + 136 x(13)#13 + 755 x(14)#14
      + 434 x(15)#15 + 167 x(16)#16 + 492 x(17)#17 + 941 x(18)#18
      + 558 x(19)#19 + 753 x(20)#20 + 527 x(21)#21 + 37 x(22)#22 + 40 x(23)#23
      + 58 x(24)#24 + 784 x(25)#25 + 852 x(26)#26 + 562 x(27)#27 + 637 x(28)#28
      + 177 x(29)#29 + 607 x(30)#30 + 680 x(31)#31 + 915 x(32)#32
      + 930 x(33)#33 + 707 x(34)#34 + 639 x(35)#35 + 597 x(36)#36
      + 101 x(37)#37 + 412 x(38)#38 + 897 x(39)#39 + 763 x(40)#40
      + 799 x(41)#41 + 729 x(42)#42 + 285 x(43)#43 + 856 x(44)#44 + 35 x(45)#45
      + 423 x(46)#46 + 153 x(47)#47 + 595 x(48)#48 + 46 x(49)#49 + 79 x(50)#50
      + 103 x(51)#51 + 614 x(52)#52 + 50 x(53)#53 + 657 x(54)#54 + 729 x(55)#55
      + 701 x(56)#56 + 211 x(57)#57 + 93 x(58)#58 + 668 x(59)#59 + 222 x(60)#60
      + 971 x(61)#61 + 926 x(62)#62 + 765 x(63)#63 + 442 x(64)#64
      + 326 x(65)#65 + 101 x(66)#66 + 46 x(67)#67 + 327 x(68)#68 + 565 x(69)#69
      + 271 x(70)#70 + 206 x(71)#71 + 851 x(72)#72 + 748 x(73)#73
      + 701 x(74)#74 + 860 x(75)#75 + 696 x(76)#76 + 770 x(77)#77
      + 839 x(78)#78 + 882 x(79)#79 + 755 x(80)#80 + 411 x(81)#81
      + 160 x(82)#82 + 922 x(83)#83 + 170 x(84)#84 + 383 x(85)#85
      + 199 x(86)#86 + 25 x(87)#87 + 944 x(88)#88 + 472 x(89)#89 + 795 x(90)#90
      + 941 x(91)#91 + 987 x(92)#92 + 406 x(93)#93 + 333 x(94)#94
      + 392 x(95)#95 + 880 x(96)#96 + 298 x(97)#97 + 810 x(98)#98
      + 522 x(99)#99 <= 39675
 c6:  851 x(0)#0 + 309 x(1)#1 + 215 x(2)#2 + 432 x(3)#3 + 824 x(4)#4
      + 758 x(5)#5 + 627 x(6)#6 + 590 x(7)#7 + 296 x(8)#8 + 414 x(9)#9
      + 618 x(10)#10 + 909 x(11)#11 + 965 x(12)#12 + 716 x(13)#13
      + 991 x(14)#14 + 733 x(15)#15 + 100 x(16)#16 + 966 x(17)#17 + 39 x(18)#18
      + 809 x(19)#19 + 125 x(20)#20 + 430 x(21)#21 + 278 x(22)#22
      + 293 x(23)#23 + 148 x(24)#24 + 561 x(25)#25 + 3 x(26)#26 + 145 x(27)#27
      + 85 x(28)#28 + 326 x(29)#29 + 82 x(30)#30 + 354 x(31)#31 + 193 x(32)#32
      + 395 x(33)#33 + 101 x(34)#34 + 901 x(35)#35 + 403 x(36)#36
      + 430 x(37)#37 + 185 x(38)#38 + 411 x(39)#39 + 601 x(40)#40 + 54 x(41)#41
      + 873 x(42)#42 + 346 x(43)#43 + 619 x(44)#44 + 792 x(45)#45
      + 726 x(46)#46 + 393 x(47)#47 + 773 x(48)#48 + 488 x(49)#49
      + 817 x(50)#50 + 89 x(51)#51 + 348 x(52)#52 + 422 x(53)#53 + 582 x(54)#54
      + 917 x(55)#55 + 842 x(56)#56 + 836 x(57)#57 + 217 x(58)#58
      + 200 x(59)#59 + 217 x(60)#60 + 289 x(61)#61 + 277 x(62)#62
      + 808 x(63)#63 + 833 x(64)#64 + 903 x(65)#65 + 352 x(66)#66
      + 766 x(67)#67 + 611 x(68)#68 + 532 x(69)#69 + 168 x(70)#70
      + 234 x(71)#71 + 937 x(72)#72 + 98 x(73)#73 + 444 x(74)#74 + 433 x(75)#75
      + 179 x(76)#76 + 335 x(77)#77 + 930 x(78)#78 + 806 x(79)#79
      + 779 x(80)#80 + 957 x(81)#81 + 436 x(82)#82 + 466 x(83)#83
      + 555 x(84)#84 + 415 x(85)#85 + 554 x(86)#86 + 211 x(87)#87
      + 891 x(88)#88 + 880 x(89)#89 + 678 x(90)#90 + 325 x(91)#91 + 45 x(92)#92
      + 235 x(93)#93 + 402 x(94)#94 + 123 x(95)#95 + 940 x(96)#96 + x(97)#97
      + 121 x(98)#98 + 75 x(99)#99 <= 36140
 c7:  80 x(0)#0 + 999 x(1)#1 + 551 x(2)#2 + 717 x(3)#3 + 394 x(4)#4
      + 971 x(5)#5 + 738 x(6)#6 + 770 x(7)#7 + 415 x(8)#8 + 210 x(9)#9
      + 54 x(10)#10 + 84 x(11)#11 + 631 x(12)#12 + 396 x(13)#13 + 65 x(14)#14
      + 666 x(15)#15 + 299 x(16)#16 + 314 x(17)#17 + 459 x(18)#18
      + 320 x(19)#19 + 113 x(20)#20 + 124 x(21)#21 + 427 x(22)#22
      + 184 x(23)#23 + 639 x(24)#24 + 380 x(25)#25 + 346 x(26)#26
      + 282 x(27)#27 + 369 x(28)#28 + 338 x(29)#29 + 56 x(30)#30 + 700 x(31)#31
      + 210 x(32)#32 + 935 x(33)#33 + 120 x(34)#34 + 954 x(35)#35
      + 979 x(36)#36 + 649 x(37)#37 + 356 x(38)#38 + 13 x(39)#39 + 935 x(40)#40
      + 753 x(41)#41 + 424 x(42)#42 + 779 x(43)#43 + 762 x(44)#44
      + 381 x(45)#45 + 832 x(46)#46 + 706 x(47)#47 + 133 x(48)#48
      + 654 x(49)#49 + 441 x(50)#50 + 828 x(51)#51 + 475 x(52)#52 + 89 x(53)#53
      + 696 x(54)#54 + 496 x(55)#55 + 377 x(56)#56 + 342 x(57)#57
      + 876 x(58)#58 + 711 x(59)#59 + 199 x(60)#60 + 418 x(61)#61 + 69 x(62)#62
      + 873 x(63)#63 + 9 x(64)#64 + 613 x(65)#65 + 377 x(66)#66 + 555 x(67)#67
      + 388 x(68)#68 + 891 x(69)#69 + 698 x(70)#70 + 713 x(71)#71
      + 417 x(72)#72 + 162 x(73)#73 + 17 x(74)#74 + 723 x(75)#75 + 131 x(76)#76
      + 273 x(77)#77 + 433 x(78)#78 + 266 x(79)#79 + 216 x(80)#80
      + 675 x(81)#81 + 523 x(82)#82 + 599 x(83)#83 + 633 x(84)#84
      + 542 x(85)#85 + 517 x(86)#86 + 111 x(87)#87 + 938 x(88)#88
      + 438 x(89)#89 + 641 x(90)#90 + 344 x(91)#91 + 665 x(92)#92
      + 224 x(93)#93 + 103 x(94)#94 + 186 x(95)#95 + 558 x(96)#96
      + 168 x(97)#97 + 866 x(98)#98 + 102 x(99)#99 <= 34703
 c8:  774 x(0)#0 + 241 x(1)#1 + 427 x(2)#2 + 16 x(3)#3 + 79 x(4)#4 + 40 x(5)#5
      + 384 x(6)#6 + 188 x(7)#7 + 546 x(8)#8 + 983 x(9)#9 + 59 x(10)#10
      + 850 x(11)#11 + 548 x(12)#12 + 482 x(13)#13 + 610 x(14)#14
      + 401 x(15)#15 + 236 x(16)#16 + 35 x(17)#17 + 649 x(18)#18 + 468 x(19)#19
      + 146 x(20)#20 + 854 x(21)#21 + 169 x(22)#22 + 326 x(23)#23
      + 220 x(24)#24 + 828 x(25)#25 + 831 x(26)#26 + 55 x(27)#27 + 471 x(28)#28
      + 744 x(29)#29 + 853 x(30)#30 + 621 x(31)#31 + 207 x(32)#32 + 28 x(33)#33
      + 400 x(34)#34 + 657 x(35)#35 + 511 x(36)#36 + 689 x(37)#37 + 31 x(38)#38
      + 190 x(39)#39 + 576 x(40)#40 + 207 x(41)#41 + 862 x(42)#42
      + 322 x(43)#43 + 666 x(44)#44 + 418 x(45)#45 + 486 x(46)#46 + 49 x(47)#47
      + 83 x(48)#48 + 209 x(49)#49 + 885 x(50)#50 + 598 x(51)#51 + 825 x(52)#52
      + 710 x(53)#53 + 636 x(54)#54 + 778 x(55)#55 + 9 x(56)#56 + 783 x(57)#57
      + 956 x(58)#58 + 792 x(59)#59 + 742 x(60)#60 + 47 x(61)#61 + 408 x(62)#62
      + 646 x(63)#63 + 753 x(64)#64 + 899 x(65)#65 + 577 x(66)#66
      + 731 x(67)#67 + 843 x(68)#68 + 813 x(69)#69 + 572 x(70)#70
      + 721 x(71)#71 + 707 x(72)#72 + 426 x(73)#73 + 564 x(74)#74
      + 137 x(75)#75 + 944 x(76)#76 + 388 x(77)#77 + 582 x(78)#78
      + 569 x(79)#79 + 429 x(80)#80 + 184 x(81)#81 + 281 x(82)#82
      + 895 x(83)#83 + 408 x(84)#84 + 293 x(85)#85 + 97 x(86)#86 + 794 x(87)#87
      + 633 x(88)#88 + 728 x(89)#89 + 144 x(90)#90 + 997 x(91)#91
      + 362 x(92)#92 + 786 x(93)#93 + 787 x(94)#94 + 922 x(95)#95
      + 627 x(96)#96 + 750 x(97)#97 + 110 x(98)#98 + 928 x(99)#99 <= 38191
 c9:  506 x(0)#0 + 516 x(1)#1 + 967 x(2)#2 + 980 x(3)#3 + 885 x(4)#4
      + 136 x(5)#5 + 611 x(6)#6 + 113 x(7)#7 + 64 x(8)#8 + 71 x(9)#9
      + 211 x(10)#10 + 656 x(11)#11 + 988 x(12)#12 + 398 x(13)#13
      + 852 x(14)#14 + 109 x(15)#15 + 94 x(16)#16 + 59 x(17)#17 + 721 x(18)#18
      + 215 x(19)#19 + 379 x(20)#20 + 320 x(21)#21 + 393 x(22)#22
      + 701 x(23)#23 + 467 x(24)#24 + 771 x(25)#25 + 128 x(26)#26
      + 937 x(27)#27 + 37 x(28)#28 + 799 x(29)#29 + 182 x(30)#30 + 294 x(31)#31
      + 309 x(32)#32 + 839 x(33)#33 + 130 x(34)#34 + 681 x(35)#35
      + 973 x(36)#36 + 152 x(37)#37 + 716 x(38)#38 + 657 x(39)#39
      + 777 x(40)#40 + 476 x(41)#41 + 29 x(42)#42 + 821 x(43)#43 + 928 x(44)#44
      + 78 x(45)#45 + 183 x(46)#46 + 586 x(47)#47 + 994 x(48)#48 + 865 x(49)#49
      + 324 x(50)#50 + 89 x(51)#51 + 455 x(52)#52 + 534 x(53)#53 + 895 x(54)#54
      + 458 x(55)#55 + 194 x(56)#56 + 745 x(57)#57 + 141 x(58)#58
      + 387 x(59)#59 + 807 x(60)#60 + 43 x(61)#61 + 706 x(62)#62 + 471 x(63)#63
      + 58 x(64)#64 + 990 x(65)#65 + 779 x(66)#66 + 975 x(67)#67 + 827 x(68)#68
      + 842 x(69)#69 + 86 x(70)#70 + 536 x(71)#71 + 443 x(72)#72 + 546 x(73)#73
      + 643 x(74)#74 + 482 x(75)#75 + 567 x(76)#76 + 229 x(77)#77
      + 818 x(78)#78 + 28 x(79)#79 + 455 x(80)#80 + 966 x(81)#81 + 601 x(82)#82
      + 440 x(83)#83 + 829 x(84)#84 + 595 x(85)#85 + 108 x(86)#86
      + 715 x(87)#87 + 54 x(88)#88 + 389 x(89)#89 + 259 x(90)#90 + 480 x(91)#91
      + 58 x(92)#92 + 500 x(93)#93 + 393 x(94)#94 + 225 x(95)#95 + 939 x(96)#96
      + 40 x(97)#97 + 818 x(98)#98 + 757 x(99)#99 <= 37105
 c10: 455 x(0)#0 + 591 x(1)#1 + 963 x(2)#2 + 112 x(3)#3 + 190 x(4)#4
      + 698 x(5)#5 + 6 x(6)#6 + 565 x(7)#7 + 451 x(8)#8 + 182 x(9)#9
      + 100 x(10)#10 + 964 x(11)#11 + 426 x(12)#12 + 90 x(13)#13 + 897 x(14)#14
      + 36 x(15)#15 + 85 x(16)#16 + 46 x(17)#17 + 54 x(18)#18 + 279 x(19)#19
      + 94 x(20)#20 + 14 x(21)#21 + 721 x(22)#22 + 328 x(23)#23 + 524 x(24)#24
      + 505 x(25)#25 + 452 x(26)#26 + 381 x(27)#27 + 439 x(28)#28
      + 301 x(29)#29 + 265 x(30)#30 + 900 x(31)#31 + 90 x(32)#32 + 798 x(33)#33
      + 312 x(34)#34 + 871 x(35)#35 + 986 x(36)#36 + 907 x(37)#37
      + 414 x(38)#38 + 208 x(39)#39 + 346 x(40)#40 + 742 x(41)#41
      + 334 x(42)#42 + 819 x(43)#43 + 932 x(44)#44 + 63 x(45)#45 + 900 x(46)#46
      + 621 x(47)#47 + 800 x(48)#48 + 679 x(49)#49 + 182 x(50)#50
      + 552 x(51)#51 + 972 x(52)#52 + 101 x(53)#53 + 952 x(54)#54 + 91 x(55)#55
      + 167 x(56)#56 + 411 x(57)#57 + 819 x(58)#58 + 659 x(59)#59
      + 350 x(60)#60 + 182 x(61)#61 + 550 x(62)#62 + 253 x(63)#63
      + 882 x(64)#64 + 184 x(65)#65 + 136 x(66)#66 + 127 x(67)#67
      + 640 x(68)#68 + 157 x(69)#69 + 882 x(70)#70 + 289 x(71)#71
      + 638 x(72)#72 + 575 x(73)#73 + 624 x(74)#74 + 71 x(75)#75 + 838 x(76)#76
      + 178 x(77)#77 + 249 x(78)#78 + 379 x(79)#79 + 4 x(80)#80 + 375 x(81)#81
      + 507 x(82)#82 + 756 x(83)#83 + 344 x(84)#84 + 833 x(85)#85
      + 488 x(86)#86 + 137 x(87)#87 + 402 x(88)#88 + 121 x(89)#89
      + 230 x(90)#90 + 604 x(91)#91 + 304 x(92)#92 + 794 x(93)#93
      + 913 x(94)#94 + 638 x(95)#95 + 209 x(96)#96 + 788 x(97)#97
      + 697 x(98)#98 + 550 x(99)#99 <= 34290
Bounds
 0 <= x(0)#0 <= 1
 0 <= x(1)#1 <= 1
 0 <= x(2)#2 <= 1
 0 <= x(3)#3 <= 1
 0 <= x(4)#4 <= 1
 0 <= x(5)#5 <= 1
 0 <= x(6)#6 <= 1
 0 <= x(7)#7 <= 1
 0 <= x(8)#8 <= 1
 0 <= x(9)#9 <= 1
 0 <= x(10)#10 <= 1
 0 <= x(11)#11 <= 1
 0 <= x(12)#12 <= 1
 0 <= x(13)#13 <= 1
 0 <= x(14)#14 <= 1
 0 <= x(15)#15 <= 1
 0 <= x(16)#16 <= 1
 0 <= x(17)#17 <= 1
 0 <= x(18)#18 <= 1
 0 <= x(19)#19 <= 1
 0 <= x(20)#20 <= 1
 0 <= x(21)#21 <= 1
 0 <= x(22)#22 <= 1
 0 <= x(23)#23 <= 1
 0 <= x(24)#24 <= 1
 0 <= x(25)#25 <= 1
 0 <= x(26)#26 <= 1
 0 <= x(27)#27 <= 1
 0 <= x(28)#28 <= 1
 0 <= x(29)#29 <= 1
 0 <= x(30)#30 <= 1
 0 <= x(31)#31 <= 1
 0 <= x(32)#32 <= 1
 0 <= x(33)#33 <= 1
 0 <= x(34)#34 <= 1
 0 <= x(35)#35 <= 1
 0 <= x(36)#36 <= 1
 0 <= x(37)#37 <= 1
 0 <= x(38)#38 <= 1
 0 <= x(39)#39 <= 1
 0 <= x(40)#40 <= 1
 0 <= x(41)#41 <= 1
 0 <= x(42)#42 <= 1
 0 <= x(43)#43 <= 1
 0 <= x(44)#44 <= 1
 0 <= x(45)#45 <= 1
 0 <= x(46)#46 <= 1
 0 <= x(47)#47 <= 1
 0 <= x(48)#48 <= 1
 0 <= x(49)#49 <= 1
 0 <= x(50)#50 <= 1
 0 <= x(51)#51 <= 1
 0 <= x(52)#52 <= 1
 0 <= x(53)#53 <= 1
 0 <= x(54)#54 <= 1
 0 <= x(55)#55 <= 1
 0 <= x(56)#56 <= 1
 0 <= x(57)#57 <= 1
 0 <= x(58)#58 <= 1
 0 <= x(59)#59 <= 1
 0 <= x(60)#60 <= 1
 0 <= x(61)#61 <= 1
 0 <= x(62)#62 <= 1
 0 <= x(63)#63 <= 1
 0 <= x(64)#64 <= 1
 0 <= x(65)#65 <= 1
 0 <= x(66)#66 <= 1
 0 <= x(67)#67 <= 1
 0 <= x(68)#68 <= 1
 0 <= x(69)#69 <= 1
 0 <= x(70)#70 <= 1
 0 <= x(71)#71 <= 1
 0 <= x(72)#72 <= 1
 0 <= x(73)#73 <= 1
 0 <= x(74)#74 <= 1
 0 <= x(75)#75 <= 1
 0 <= x(76)#76 <= 1
 0 <= x(77)#77 <= 1
 0 <= x(78)#78 <= 1
 0 <= x(79)#79 <= 1
 0 <= x(80)#80 <= 1
 0 <= x(81)#81 <= 1
 0 <= x(82)#82 <= 1
 0 <= x(83)#83 <= 1
 0 <= x(84)#84 <= 1
 0 <= x(85)#85 <= 1
 0 <= x(86)#86 <= 1
 0 <= x(87)#87 <= 1
 0 <= x(88)#88 <= 1
 0 <= x(89)#89 <= 1
 0 <= x(90)#90 <= 1
 0 <= x(91)#91 <= 1
 0 <= x(92)#92 <= 1
 0 <= x(93)#93 <= 1
 0 <= x(94)#94 <= 1
 0 <= x(95)#95 <= 1
 0 <= x(96)#96 <= 1
 0 <= x(97)#97 <= 1
 0 <= x(98)#98 <= 1
 0 <= x(99)#99 <= 1
Generals
 x(0)#0  x(1)#1  x(2)#2  x(3)#3  x(4)#4  x(5)#5  x(6)#6  x(7)#7  x(8)#8 
 x(9)#9  x(10)#10  x(11)#11  x(12)#12  x(13)#13  x(14)#14  x(15)#15  x(16)#16 
 x(17)#17  x(18)#18  x(19)#19  x(20)#20  x(21)#21  x(22)#22  x(23)#23 
 x(24)#24  x(25)#25  x(26)#26  x(27)#27  x(28)#28  x(29)#29  x(30)#30 
 x(31)#31  x(32)#32  x(33)#33  x(34)#34  x(35)#35  x(36)#36  x(37)#37 
 x(38)#38  x(39)#39  x(40)#40  x(41)#41  x(42)#42  x(43)#43  x(44)#44 
 x(45)#45  x(46)#46  x(47)#47  x(48)#48  x(49)#49  x(50)#50  x(51)#51 
 x(52)#52  x(53)#53  x(54)#54  x(55)#55  x(56)#56  x(57)#57  x(58)#58 
 x(59)#59  x(60)#60  x(61)#61  x(62)#62  x(63)#63  x(64)#64  x(65)#65 
 x(66)#66  x(67)#67  x(68)#68  x(69)#69  x(70)#70  x(71)#71  x(72)#72 
 x(73)#73  x(74)#74  x(75)#75  x(76)#76  x(77)#77  x(78)#78  x(79)#79 
 x(80)#80  x(81)#81  x(82)#82  x(83)#83  x(84)#84  x(85)#85  x(86)#86 
 x(87)#87  x(88)#88  x(89)#89  x(90)#90  x(91)#91  x(92)#92  x(93)#93 
 x(94)#94  x(95)#95  x(96)#96  x(97)#97  x(98)#98  x(99)#99 
End
